* #variable= 825 #constraint= 806 
+1 x23 -1 x1 >= 0 ;
+1 x23 -1 x12 >= 0 ;
-1 x23 +1 x1 +1 x12 >= 0 ;
+1 x34 -1 x12 >= 0 ;
+1 x34 -1 x45 >= 0 ;
-1 x34 +1 x12 +1 x45 >= 0 ;
+1 x12 = 0 ;
+1 x24 -1 x2 >= 0 ;
+1 x24 -1 x13 >= 0 ;
-1 x24 +1 x2 +1 x13 >= 0 ;
+1 x35 -1 x13 >= 0 ;
+1 x35 -1 x46 >= 0 ;
-1 x35 +1 x13 +1 x46 >= 0 ;
+1 x13 = 1 ;
+1 x25 -1 x3 >= 0 ;
+1 x25 -1 x14 >= 0 ;
-1 x25 +1 x3 +1 x14 >= 0 ;
+1 x36 -1 x14 >= 0 ;
+1 x36 -1 x47 >= 0 ;
-1 x36 +1 x14 +1 x47 >= 0 ;
+1 x14 = 0 ;
+1 x26 -1 x4 >= 0 ;
+1 x26 -1 x15 >= 0 ;
-1 x26 +1 x4 +1 x15 >= 0 ;
+1 x37 -1 x15 >= 0 ;
+1 x37 -1 x48 >= 0 ;
-1 x37 +1 x15 +1 x48 >= 0 ;
+1 x15 = 1 ;
+1 x27 -1 x5 >= 0 ;
+1 x27 -1 x16 >= 0 ;
-1 x27 +1 x5 +1 x16 >= 0 ;
+1 x38 -1 x16 >= 0 ;
+1 x38 -1 x49 >= 0 ;
-1 x38 +1 x16 +1 x49 >= 0 ;
+1 x16 = 0 ;
+1 x28 -1 x6 >= 0 ;
+1 x28 -1 x17 >= 0 ;
-1 x28 +1 x6 +1 x17 >= 0 ;
+1 x39 -1 x17 >= 0 ;
+1 x39 -1 x50 >= 0 ;
-1 x39 +1 x17 +1 x50 >= 0 ;
+1 x17 = 1 ;
+1 x29 -1 x7 >= 0 ;
+1 x29 -1 x18 >= 0 ;
-1 x29 +1 x7 +1 x18 >= 0 ;
+1 x40 -1 x18 >= 0 ;
+1 x40 -1 x51 >= 0 ;
-1 x40 +1 x18 +1 x51 >= 0 ;
+1 x18 = 0 ;
+1 x30 -1 x8 >= 0 ;
+1 x30 -1 x19 >= 0 ;
-1 x30 +1 x8 +1 x19 >= 0 ;
+1 x41 -1 x19 >= 0 ;
+1 x41 -1 x52 >= 0 ;
-1 x41 +1 x19 +1 x52 >= 0 ;
+1 x19 = 1 ;
+1 x31 -1 x9 >= 0 ;
+1 x31 -1 x20 >= 0 ;
-1 x31 +1 x9 +1 x20 >= 0 ;
+1 x42 -1 x20 >= 0 ;
+1 x42 -1 x53 >= 0 ;
-1 x42 +1 x20 +1 x53 >= 0 ;
+1 x20 = 0 ;
+1 x32 -1 x10 >= 0 ;
+1 x32 -1 x21 >= 0 ;
-1 x32 +1 x10 +1 x21 >= 0 ;
+1 x43 -1 x21 >= 0 ;
+1 x43 -1 x54 >= 0 ;
-1 x43 +1 x21 +1 x54 >= 0 ;
+1 x21 = 1 ;
+1 x33 -1 x11 >= 0 ;
+1 x33 -1 x22 >= 0 ;
-1 x33 +1 x11 +1 x22 >= 0 ;
+1 x44 -1 x22 >= 0 ;
+1 x44 -1 x55 >= 0 ;
-1 x44 +1 x22 +1 x55 >= 0 ;
+1 x22 = 0 ;
-1 x56 +1 x23 >= 0 ;
-1 x56 +1 x34 >= 0 ;
+1 x56 -1 x23 -1 x34 >= -1 ;
+1 x56 +2 x67 +4 x78 +8 x89 +16 x100 +32 x111 +64 x122 +128 x133 +256 x144 +512 x155 +1024 x166 +2 x57 +4 x68 +8 x79 +16 x90 +32 x101 +64 x112 +128 x123 +256 x134 +512 x145 +1024 x156 +2048 x167 +4 x58 +8 x69 +16 x80 +32 x91 +64 x102 +128 x113 +256 x124 +512 x135 +1024 x146 +2048 x157 +4096 x168 +8 x59 +16 x70 +32 x81 +64 x92 +128 x103 +256 x114 +512 x125 +1024 x136 +2048 x147 +4096 x158 +8192 x169 +16 x60 +32 x71 +64 x82 +128 x93 +256 x104 +512 x115 +1024 x126 +2048 x137 +4096 x148 +8192 x159 +16384 x170 +32 x61 +64 x72 +128 x83 +256 x94 +512 x105 +1024 x116 +2048 x127 +4096 x138 +8192 x149 +16384 x160 +32768 x171 +64 x62 +128 x73 +256 x84 +512 x95 +1024 x106 +2048 x117 +4096 x128 +8192 x139 +16384 x150 +32768 x161 +65536 x172 +128 x63 +256 x74 +512 x85 +1024 x96 +2048 x107 +4096 x118 +8192 x129 +16384 x140 +32768 x151 +65536 x162 +131072 x173 +256 x64 +512 x75 +1024 x86 +2048 x97 +4096 x108 +8192 x119 +16384 x130 +32768 x141 +65536 x152 +131072 x163 +262144 x174 +512 x65 +1024 x76 +2048 x87 +4096 x98 +8192 x109 +16384 x120 +32768 x131 +65536 x142 +131072 x153 +262144 x164 +524288 x175 +1024 x66 +2048 x77 +4096 x88 +8192 x99 +16384 x110 +32768 x121 +65536 x132 +131072 x143 +262144 x154 +524288 x165 +1048576 x176 -1 x782 -2 x783 -4 x784 -8 x785 -16 x786 -32 x787 -64 x788 -128 x789 -256 x790 -512 x791 -1024 x792 -2048 x793 -4096 x794 -8192 x795 -16384 x796 -32768 x797 -65536 x798 -131072 x799 -262144 x800 -524288 x801 -1048576 x802 -2097152 x803 = 0; 
-1 x419 +1 x12 >= 0 ;
-1 x419 +1 x1 >= 0 ;
+1 x419 -1 x12 -1 x1 >= -1 ;
+1 x419 +2 x430 +4 x441 +8 x452 +16 x463 +32 x474 +64 x485 +128 x496 +256 x507 +512 x518 +1024 x529 +2 x420 +4 x431 +8 x442 +16 x453 +32 x464 +64 x475 +128 x486 +256 x497 +512 x508 +1024 x519 +2048 x530 +4 x421 +8 x432 +16 x443 +32 x454 +64 x465 +128 x476 +256 x487 +512 x498 +1024 x509 +2048 x520 +4096 x531 +8 x422 +16 x433 +32 x444 +64 x455 +128 x466 +256 x477 +512 x488 +1024 x499 +2048 x510 +4096 x521 +8192 x532 +16 x423 +32 x434 +64 x445 +128 x456 +256 x467 +512 x478 +1024 x489 +2048 x500 +4096 x511 +8192 x522 +16384 x533 +32 x424 +64 x435 +128 x446 +256 x457 +512 x468 +1024 x479 +2048 x490 +4096 x501 +8192 x512 +16384 x523 +32768 x534 +64 x425 +128 x436 +256 x447 +512 x458 +1024 x469 +2048 x480 +4096 x491 +8192 x502 +16384 x513 +32768 x524 +65536 x535 +128 x426 +256 x437 +512 x448 +1024 x459 +2048 x470 +4096 x481 +8192 x492 +16384 x503 +32768 x514 +65536 x525 +131072 x536 +256 x427 +512 x438 +1024 x449 +2048 x460 +4096 x471 +8192 x482 +16384 x493 +32768 x504 +65536 x515 +131072 x526 +262144 x537 +512 x428 +1024 x439 +2048 x450 +4096 x461 +8192 x472 +16384 x483 +32768 x494 +65536 x505 +131072 x516 +262144 x527 +524288 x538 +1024 x429 +2048 x440 +4096 x451 +8192 x462 +16384 x473 +32768 x484 +65536 x495 +131072 x506 +262144 x517 +524288 x528 +1048576 x539 -1 x804 -2 x805 -4 x806 -8 x807 -16 x808 -32 x809 -64 x810 -128 x811 -256 x812 -512 x813 -1024 x814 -2048 x815 -4096 x816 -8192 x817 -16384 x818 -32768 x819 -65536 x820 -131072 x821 -262144 x822 -524288 x823 -1048576 x824 -2097152 x825 = 0; 
+1 x804 -1 x782 +2 x805 -2 x783 +4 x806 -4 x784 +8 x807 -8 x785 +16 x808 -16 x786 +32 x809 -32 x787 +64 x810 -64 x788 +128 x811 -128 x789 +256 x812 -256 x790 +512 x813 -512 x791 +1024 x814 -1024 x792 +2048 x815 -2048 x793 +4096 x816 -4096 x794 +8192 x817 -8192 x795 +16384 x818 -16384 x796 +32768 x819 -32768 x797 +65536 x820 -65536 x798 +131072 x821 -131072 x799 +262144 x822 -262144 x800 +524288 x823 -524288 x801 +1048576 x824 -1048576 x802 +2097152 x825 -2097152 x803 >= 1 ;
-1 x67 +1 x24 >= 0 ;
-1 x67 +1 x34 >= 0 ;
+1 x67 -1 x24 -1 x34 >= -1 ;
-1 x57 +1 x23 >= 0 ;
-1 x57 +1 x35 >= 0 ;
+1 x57 -1 x23 -1 x35 >= -1 ;
-1 x430 +1 x13 >= 0 ;
-1 x430 +1 x1 >= 0 ;
+1 x430 -1 x13 -1 x1 >= -1 ;
-1 x420 +1 x12 >= 0 ;
-1 x420 +1 x2 >= 0 ;
+1 x420 -1 x12 -1 x2 >= -1 ;
-1 x78 +1 x25 >= 0 ;
-1 x78 +1 x34 >= 0 ;
+1 x78 -1 x25 -1 x34 >= -1 ;
-1 x68 +1 x24 >= 0 ;
-1 x68 +1 x35 >= 0 ;
+1 x68 -1 x24 -1 x35 >= -1 ;
-1 x58 +1 x23 >= 0 ;
-1 x58 +1 x36 >= 0 ;
+1 x58 -1 x23 -1 x36 >= -1 ;
-1 x441 +1 x14 >= 0 ;
-1 x441 +1 x1 >= 0 ;
+1 x441 -1 x14 -1 x1 >= -1 ;
-1 x431 +1 x13 >= 0 ;
-1 x431 +1 x2 >= 0 ;
+1 x431 -1 x13 -1 x2 >= -1 ;
-1 x421 +1 x12 >= 0 ;
-1 x421 +1 x3 >= 0 ;
+1 x421 -1 x12 -1 x3 >= -1 ;
-1 x89 +1 x26 >= 0 ;
-1 x89 +1 x34 >= 0 ;
+1 x89 -1 x26 -1 x34 >= -1 ;
-1 x79 +1 x25 >= 0 ;
-1 x79 +1 x35 >= 0 ;
+1 x79 -1 x25 -1 x35 >= -1 ;
-1 x69 +1 x24 >= 0 ;
-1 x69 +1 x36 >= 0 ;
+1 x69 -1 x24 -1 x36 >= -1 ;
-1 x59 +1 x23 >= 0 ;
-1 x59 +1 x37 >= 0 ;
+1 x59 -1 x23 -1 x37 >= -1 ;
-1 x452 +1 x15 >= 0 ;
-1 x452 +1 x1 >= 0 ;
+1 x452 -1 x15 -1 x1 >= -1 ;
-1 x442 +1 x14 >= 0 ;
-1 x442 +1 x2 >= 0 ;
+1 x442 -1 x14 -1 x2 >= -1 ;
-1 x432 +1 x13 >= 0 ;
-1 x432 +1 x3 >= 0 ;
+1 x432 -1 x13 -1 x3 >= -1 ;
-1 x422 +1 x12 >= 0 ;
-1 x422 +1 x4 >= 0 ;
+1 x422 -1 x12 -1 x4 >= -1 ;
-1 x100 +1 x27 >= 0 ;
-1 x100 +1 x34 >= 0 ;
+1 x100 -1 x27 -1 x34 >= -1 ;
-1 x90 +1 x26 >= 0 ;
-1 x90 +1 x35 >= 0 ;
+1 x90 -1 x26 -1 x35 >= -1 ;
-1 x80 +1 x25 >= 0 ;
-1 x80 +1 x36 >= 0 ;
+1 x80 -1 x25 -1 x36 >= -1 ;
-1 x70 +1 x24 >= 0 ;
-1 x70 +1 x37 >= 0 ;
+1 x70 -1 x24 -1 x37 >= -1 ;
-1 x60 +1 x23 >= 0 ;
-1 x60 +1 x38 >= 0 ;
+1 x60 -1 x23 -1 x38 >= -1 ;
-1 x463 +1 x16 >= 0 ;
-1 x463 +1 x1 >= 0 ;
+1 x463 -1 x16 -1 x1 >= -1 ;
-1 x453 +1 x15 >= 0 ;
-1 x453 +1 x2 >= 0 ;
+1 x453 -1 x15 -1 x2 >= -1 ;
-1 x443 +1 x14 >= 0 ;
-1 x443 +1 x3 >= 0 ;
+1 x443 -1 x14 -1 x3 >= -1 ;
-1 x433 +1 x13 >= 0 ;
-1 x433 +1 x4 >= 0 ;
+1 x433 -1 x13 -1 x4 >= -1 ;
-1 x423 +1 x12 >= 0 ;
-1 x423 +1 x5 >= 0 ;
+1 x423 -1 x12 -1 x5 >= -1 ;
-1 x111 +1 x28 >= 0 ;
-1 x111 +1 x34 >= 0 ;
+1 x111 -1 x28 -1 x34 >= -1 ;
-1 x101 +1 x27 >= 0 ;
-1 x101 +1 x35 >= 0 ;
+1 x101 -1 x27 -1 x35 >= -1 ;
-1 x91 +1 x26 >= 0 ;
-1 x91 +1 x36 >= 0 ;
+1 x91 -1 x26 -1 x36 >= -1 ;
-1 x81 +1 x25 >= 0 ;
-1 x81 +1 x37 >= 0 ;
+1 x81 -1 x25 -1 x37 >= -1 ;
-1 x71 +1 x24 >= 0 ;
-1 x71 +1 x38 >= 0 ;
+1 x71 -1 x24 -1 x38 >= -1 ;
-1 x61 +1 x23 >= 0 ;
-1 x61 +1 x39 >= 0 ;
+1 x61 -1 x23 -1 x39 >= -1 ;
-1 x474 +1 x17 >= 0 ;
-1 x474 +1 x1 >= 0 ;
+1 x474 -1 x17 -1 x1 >= -1 ;
-1 x464 +1 x16 >= 0 ;
-1 x464 +1 x2 >= 0 ;
+1 x464 -1 x16 -1 x2 >= -1 ;
-1 x454 +1 x15 >= 0 ;
-1 x454 +1 x3 >= 0 ;
+1 x454 -1 x15 -1 x3 >= -1 ;
-1 x444 +1 x14 >= 0 ;
-1 x444 +1 x4 >= 0 ;
+1 x444 -1 x14 -1 x4 >= -1 ;
-1 x434 +1 x13 >= 0 ;
-1 x434 +1 x5 >= 0 ;
+1 x434 -1 x13 -1 x5 >= -1 ;
-1 x424 +1 x12 >= 0 ;
-1 x424 +1 x6 >= 0 ;
+1 x424 -1 x12 -1 x6 >= -1 ;
-1 x122 +1 x29 >= 0 ;
-1 x122 +1 x34 >= 0 ;
+1 x122 -1 x29 -1 x34 >= -1 ;
-1 x112 +1 x28 >= 0 ;
-1 x112 +1 x35 >= 0 ;
+1 x112 -1 x28 -1 x35 >= -1 ;
-1 x102 +1 x27 >= 0 ;
-1 x102 +1 x36 >= 0 ;
+1 x102 -1 x27 -1 x36 >= -1 ;
-1 x92 +1 x26 >= 0 ;
-1 x92 +1 x37 >= 0 ;
+1 x92 -1 x26 -1 x37 >= -1 ;
-1 x82 +1 x25 >= 0 ;
-1 x82 +1 x38 >= 0 ;
+1 x82 -1 x25 -1 x38 >= -1 ;
-1 x72 +1 x24 >= 0 ;
-1 x72 +1 x39 >= 0 ;
+1 x72 -1 x24 -1 x39 >= -1 ;
-1 x62 +1 x23 >= 0 ;
-1 x62 +1 x40 >= 0 ;
+1 x62 -1 x23 -1 x40 >= -1 ;
-1 x485 +1 x18 >= 0 ;
-1 x485 +1 x1 >= 0 ;
+1 x485 -1 x18 -1 x1 >= -1 ;
-1 x475 +1 x17 >= 0 ;
-1 x475 +1 x2 >= 0 ;
+1 x475 -1 x17 -1 x2 >= -1 ;
-1 x465 +1 x16 >= 0 ;
-1 x465 +1 x3 >= 0 ;
+1 x465 -1 x16 -1 x3 >= -1 ;
-1 x455 +1 x15 >= 0 ;
-1 x455 +1 x4 >= 0 ;
+1 x455 -1 x15 -1 x4 >= -1 ;
-1 x445 +1 x14 >= 0 ;
-1 x445 +1 x5 >= 0 ;
+1 x445 -1 x14 -1 x5 >= -1 ;
-1 x435 +1 x13 >= 0 ;
-1 x435 +1 x6 >= 0 ;
+1 x435 -1 x13 -1 x6 >= -1 ;
-1 x425 +1 x12 >= 0 ;
-1 x425 +1 x7 >= 0 ;
+1 x425 -1 x12 -1 x7 >= -1 ;
-1 x133 +1 x30 >= 0 ;
-1 x133 +1 x34 >= 0 ;
+1 x133 -1 x30 -1 x34 >= -1 ;
-1 x123 +1 x29 >= 0 ;
-1 x123 +1 x35 >= 0 ;
+1 x123 -1 x29 -1 x35 >= -1 ;
-1 x113 +1 x28 >= 0 ;
-1 x113 +1 x36 >= 0 ;
+1 x113 -1 x28 -1 x36 >= -1 ;
-1 x103 +1 x27 >= 0 ;
-1 x103 +1 x37 >= 0 ;
+1 x103 -1 x27 -1 x37 >= -1 ;
-1 x93 +1 x26 >= 0 ;
-1 x93 +1 x38 >= 0 ;
+1 x93 -1 x26 -1 x38 >= -1 ;
-1 x83 +1 x25 >= 0 ;
-1 x83 +1 x39 >= 0 ;
+1 x83 -1 x25 -1 x39 >= -1 ;
-1 x73 +1 x24 >= 0 ;
-1 x73 +1 x40 >= 0 ;
+1 x73 -1 x24 -1 x40 >= -1 ;
-1 x63 +1 x23 >= 0 ;
-1 x63 +1 x41 >= 0 ;
+1 x63 -1 x23 -1 x41 >= -1 ;
-1 x496 +1 x19 >= 0 ;
-1 x496 +1 x1 >= 0 ;
+1 x496 -1 x19 -1 x1 >= -1 ;
-1 x486 +1 x18 >= 0 ;
-1 x486 +1 x2 >= 0 ;
+1 x486 -1 x18 -1 x2 >= -1 ;
-1 x476 +1 x17 >= 0 ;
-1 x476 +1 x3 >= 0 ;
+1 x476 -1 x17 -1 x3 >= -1 ;
-1 x466 +1 x16 >= 0 ;
-1 x466 +1 x4 >= 0 ;
+1 x466 -1 x16 -1 x4 >= -1 ;
-1 x456 +1 x15 >= 0 ;
-1 x456 +1 x5 >= 0 ;
+1 x456 -1 x15 -1 x5 >= -1 ;
-1 x446 +1 x14 >= 0 ;
-1 x446 +1 x6 >= 0 ;
+1 x446 -1 x14 -1 x6 >= -1 ;
-1 x436 +1 x13 >= 0 ;
-1 x436 +1 x7 >= 0 ;
+1 x436 -1 x13 -1 x7 >= -1 ;
-1 x426 +1 x12 >= 0 ;
-1 x426 +1 x8 >= 0 ;
+1 x426 -1 x12 -1 x8 >= -1 ;
-1 x144 +1 x31 >= 0 ;
-1 x144 +1 x34 >= 0 ;
+1 x144 -1 x31 -1 x34 >= -1 ;
-1 x134 +1 x30 >= 0 ;
-1 x134 +1 x35 >= 0 ;
+1 x134 -1 x30 -1 x35 >= -1 ;
-1 x124 +1 x29 >= 0 ;
-1 x124 +1 x36 >= 0 ;
+1 x124 -1 x29 -1 x36 >= -1 ;
-1 x114 +1 x28 >= 0 ;
-1 x114 +1 x37 >= 0 ;
+1 x114 -1 x28 -1 x37 >= -1 ;
-1 x104 +1 x27 >= 0 ;
-1 x104 +1 x38 >= 0 ;
+1 x104 -1 x27 -1 x38 >= -1 ;
-1 x94 +1 x26 >= 0 ;
-1 x94 +1 x39 >= 0 ;
+1 x94 -1 x26 -1 x39 >= -1 ;
-1 x84 +1 x25 >= 0 ;
-1 x84 +1 x40 >= 0 ;
+1 x84 -1 x25 -1 x40 >= -1 ;
-1 x74 +1 x24 >= 0 ;
-1 x74 +1 x41 >= 0 ;
+1 x74 -1 x24 -1 x41 >= -1 ;
-1 x64 +1 x23 >= 0 ;
-1 x64 +1 x42 >= 0 ;
+1 x64 -1 x23 -1 x42 >= -1 ;
-1 x507 +1 x20 >= 0 ;
-1 x507 +1 x1 >= 0 ;
+1 x507 -1 x20 -1 x1 >= -1 ;
-1 x497 +1 x19 >= 0 ;
-1 x497 +1 x2 >= 0 ;
+1 x497 -1 x19 -1 x2 >= -1 ;
-1 x487 +1 x18 >= 0 ;
-1 x487 +1 x3 >= 0 ;
+1 x487 -1 x18 -1 x3 >= -1 ;
-1 x477 +1 x17 >= 0 ;
-1 x477 +1 x4 >= 0 ;
+1 x477 -1 x17 -1 x4 >= -1 ;
-1 x467 +1 x16 >= 0 ;
-1 x467 +1 x5 >= 0 ;
+1 x467 -1 x16 -1 x5 >= -1 ;
-1 x457 +1 x15 >= 0 ;
-1 x457 +1 x6 >= 0 ;
+1 x457 -1 x15 -1 x6 >= -1 ;
-1 x447 +1 x14 >= 0 ;
-1 x447 +1 x7 >= 0 ;
+1 x447 -1 x14 -1 x7 >= -1 ;
-1 x437 +1 x13 >= 0 ;
-1 x437 +1 x8 >= 0 ;
+1 x437 -1 x13 -1 x8 >= -1 ;
-1 x427 +1 x12 >= 0 ;
-1 x427 +1 x9 >= 0 ;
+1 x427 -1 x12 -1 x9 >= -1 ;
-1 x155 +1 x32 >= 0 ;
-1 x155 +1 x34 >= 0 ;
+1 x155 -1 x32 -1 x34 >= -1 ;
-1 x145 +1 x31 >= 0 ;
-1 x145 +1 x35 >= 0 ;
+1 x145 -1 x31 -1 x35 >= -1 ;
-1 x135 +1 x30 >= 0 ;
-1 x135 +1 x36 >= 0 ;
+1 x135 -1 x30 -1 x36 >= -1 ;
-1 x125 +1 x29 >= 0 ;
-1 x125 +1 x37 >= 0 ;
+1 x125 -1 x29 -1 x37 >= -1 ;
-1 x115 +1 x28 >= 0 ;
-1 x115 +1 x38 >= 0 ;
+1 x115 -1 x28 -1 x38 >= -1 ;
-1 x105 +1 x27 >= 0 ;
-1 x105 +1 x39 >= 0 ;
+1 x105 -1 x27 -1 x39 >= -1 ;
-1 x95 +1 x26 >= 0 ;
-1 x95 +1 x40 >= 0 ;
+1 x95 -1 x26 -1 x40 >= -1 ;
-1 x85 +1 x25 >= 0 ;
-1 x85 +1 x41 >= 0 ;
+1 x85 -1 x25 -1 x41 >= -1 ;
-1 x75 +1 x24 >= 0 ;
-1 x75 +1 x42 >= 0 ;
+1 x75 -1 x24 -1 x42 >= -1 ;
-1 x65 +1 x23 >= 0 ;
-1 x65 +1 x43 >= 0 ;
+1 x65 -1 x23 -1 x43 >= -1 ;
-1 x518 +1 x21 >= 0 ;
-1 x518 +1 x1 >= 0 ;
+1 x518 -1 x21 -1 x1 >= -1 ;
-1 x508 +1 x20 >= 0 ;
-1 x508 +1 x2 >= 0 ;
+1 x508 -1 x20 -1 x2 >= -1 ;
-1 x498 +1 x19 >= 0 ;
-1 x498 +1 x3 >= 0 ;
+1 x498 -1 x19 -1 x3 >= -1 ;
-1 x488 +1 x18 >= 0 ;
-1 x488 +1 x4 >= 0 ;
+1 x488 -1 x18 -1 x4 >= -1 ;
-1 x478 +1 x17 >= 0 ;
-1 x478 +1 x5 >= 0 ;
+1 x478 -1 x17 -1 x5 >= -1 ;
-1 x468 +1 x16 >= 0 ;
-1 x468 +1 x6 >= 0 ;
+1 x468 -1 x16 -1 x6 >= -1 ;
-1 x458 +1 x15 >= 0 ;
-1 x458 +1 x7 >= 0 ;
+1 x458 -1 x15 -1 x7 >= -1 ;
-1 x448 +1 x14 >= 0 ;
-1 x448 +1 x8 >= 0 ;
+1 x448 -1 x14 -1 x8 >= -1 ;
-1 x438 +1 x13 >= 0 ;
-1 x438 +1 x9 >= 0 ;
+1 x438 -1 x13 -1 x9 >= -1 ;
-1 x428 +1 x12 >= 0 ;
-1 x428 +1 x10 >= 0 ;
+1 x428 -1 x12 -1 x10 >= -1 ;
-1 x166 +1 x33 >= 0 ;
-1 x166 +1 x34 >= 0 ;
+1 x166 -1 x33 -1 x34 >= -1 ;
-1 x156 +1 x32 >= 0 ;
-1 x156 +1 x35 >= 0 ;
+1 x156 -1 x32 -1 x35 >= -1 ;
-1 x146 +1 x31 >= 0 ;
-1 x146 +1 x36 >= 0 ;
+1 x146 -1 x31 -1 x36 >= -1 ;
-1 x136 +1 x30 >= 0 ;
-1 x136 +1 x37 >= 0 ;
+1 x136 -1 x30 -1 x37 >= -1 ;
-1 x126 +1 x29 >= 0 ;
-1 x126 +1 x38 >= 0 ;
+1 x126 -1 x29 -1 x38 >= -1 ;
-1 x116 +1 x28 >= 0 ;
-1 x116 +1 x39 >= 0 ;
+1 x116 -1 x28 -1 x39 >= -1 ;
-1 x106 +1 x27 >= 0 ;
-1 x106 +1 x40 >= 0 ;
+1 x106 -1 x27 -1 x40 >= -1 ;
-1 x96 +1 x26 >= 0 ;
-1 x96 +1 x41 >= 0 ;
+1 x96 -1 x26 -1 x41 >= -1 ;
-1 x86 +1 x25 >= 0 ;
-1 x86 +1 x42 >= 0 ;
+1 x86 -1 x25 -1 x42 >= -1 ;
-1 x76 +1 x24 >= 0 ;
-1 x76 +1 x43 >= 0 ;
+1 x76 -1 x24 -1 x43 >= -1 ;
-1 x66 +1 x23 >= 0 ;
-1 x66 +1 x44 >= 0 ;
+1 x66 -1 x23 -1 x44 >= -1 ;
-1 x529 +1 x22 >= 0 ;
-1 x529 +1 x1 >= 0 ;
+1 x529 -1 x22 -1 x1 >= -1 ;
-1 x519 +1 x21 >= 0 ;
-1 x519 +1 x2 >= 0 ;
+1 x519 -1 x21 -1 x2 >= -1 ;
-1 x509 +1 x20 >= 0 ;
-1 x509 +1 x3 >= 0 ;
+1 x509 -1 x20 -1 x3 >= -1 ;
-1 x499 +1 x19 >= 0 ;
-1 x499 +1 x4 >= 0 ;
+1 x499 -1 x19 -1 x4 >= -1 ;
-1 x489 +1 x18 >= 0 ;
-1 x489 +1 x5 >= 0 ;
+1 x489 -1 x18 -1 x5 >= -1 ;
-1 x479 +1 x17 >= 0 ;
-1 x479 +1 x6 >= 0 ;
+1 x479 -1 x17 -1 x6 >= -1 ;
-1 x469 +1 x16 >= 0 ;
-1 x469 +1 x7 >= 0 ;
+1 x469 -1 x16 -1 x7 >= -1 ;
-1 x459 +1 x15 >= 0 ;
-1 x459 +1 x8 >= 0 ;
+1 x459 -1 x15 -1 x8 >= -1 ;
-1 x449 +1 x14 >= 0 ;
-1 x449 +1 x9 >= 0 ;
+1 x449 -1 x14 -1 x9 >= -1 ;
-1 x439 +1 x13 >= 0 ;
-1 x439 +1 x10 >= 0 ;
+1 x439 -1 x13 -1 x10 >= -1 ;
-1 x429 +1 x12 >= 0 ;
-1 x429 +1 x11 >= 0 ;
+1 x429 -1 x12 -1 x11 >= -1 ;
-1 x167 +1 x33 >= 0 ;
-1 x167 +1 x35 >= 0 ;
+1 x167 -1 x33 -1 x35 >= -1 ;
-1 x157 +1 x32 >= 0 ;
-1 x157 +1 x36 >= 0 ;
+1 x157 -1 x32 -1 x36 >= -1 ;
-1 x147 +1 x31 >= 0 ;
-1 x147 +1 x37 >= 0 ;
+1 x147 -1 x31 -1 x37 >= -1 ;
-1 x137 +1 x30 >= 0 ;
-1 x137 +1 x38 >= 0 ;
+1 x137 -1 x30 -1 x38 >= -1 ;
-1 x127 +1 x29 >= 0 ;
-1 x127 +1 x39 >= 0 ;
+1 x127 -1 x29 -1 x39 >= -1 ;
-1 x117 +1 x28 >= 0 ;
-1 x117 +1 x40 >= 0 ;
+1 x117 -1 x28 -1 x40 >= -1 ;
-1 x107 +1 x27 >= 0 ;
-1 x107 +1 x41 >= 0 ;
+1 x107 -1 x27 -1 x41 >= -1 ;
-1 x97 +1 x26 >= 0 ;
-1 x97 +1 x42 >= 0 ;
+1 x97 -1 x26 -1 x42 >= -1 ;
-1 x87 +1 x25 >= 0 ;
-1 x87 +1 x43 >= 0 ;
+1 x87 -1 x25 -1 x43 >= -1 ;
-1 x77 +1 x24 >= 0 ;
-1 x77 +1 x44 >= 0 ;
+1 x77 -1 x24 -1 x44 >= -1 ;
-1 x530 +1 x22 >= 0 ;
-1 x530 +1 x2 >= 0 ;
+1 x530 -1 x22 -1 x2 >= -1 ;
-1 x520 +1 x21 >= 0 ;
-1 x520 +1 x3 >= 0 ;
+1 x520 -1 x21 -1 x3 >= -1 ;
-1 x510 +1 x20 >= 0 ;
-1 x510 +1 x4 >= 0 ;
+1 x510 -1 x20 -1 x4 >= -1 ;
-1 x500 +1 x19 >= 0 ;
-1 x500 +1 x5 >= 0 ;
+1 x500 -1 x19 -1 x5 >= -1 ;
-1 x490 +1 x18 >= 0 ;
-1 x490 +1 x6 >= 0 ;
+1 x490 -1 x18 -1 x6 >= -1 ;
-1 x480 +1 x17 >= 0 ;
-1 x480 +1 x7 >= 0 ;
+1 x480 -1 x17 -1 x7 >= -1 ;
-1 x470 +1 x16 >= 0 ;
-1 x470 +1 x8 >= 0 ;
+1 x470 -1 x16 -1 x8 >= -1 ;
-1 x460 +1 x15 >= 0 ;
-1 x460 +1 x9 >= 0 ;
+1 x460 -1 x15 -1 x9 >= -1 ;
-1 x450 +1 x14 >= 0 ;
-1 x450 +1 x10 >= 0 ;
+1 x450 -1 x14 -1 x10 >= -1 ;
-1 x440 +1 x13 >= 0 ;
-1 x440 +1 x11 >= 0 ;
+1 x440 -1 x13 -1 x11 >= -1 ;
-1 x168 +1 x33 >= 0 ;
-1 x168 +1 x36 >= 0 ;
+1 x168 -1 x33 -1 x36 >= -1 ;
-1 x158 +1 x32 >= 0 ;
-1 x158 +1 x37 >= 0 ;
+1 x158 -1 x32 -1 x37 >= -1 ;
-1 x148 +1 x31 >= 0 ;
-1 x148 +1 x38 >= 0 ;
+1 x148 -1 x31 -1 x38 >= -1 ;
-1 x138 +1 x30 >= 0 ;
-1 x138 +1 x39 >= 0 ;
+1 x138 -1 x30 -1 x39 >= -1 ;
-1 x128 +1 x29 >= 0 ;
-1 x128 +1 x40 >= 0 ;
+1 x128 -1 x29 -1 x40 >= -1 ;
-1 x118 +1 x28 >= 0 ;
-1 x118 +1 x41 >= 0 ;
+1 x118 -1 x28 -1 x41 >= -1 ;
-1 x108 +1 x27 >= 0 ;
-1 x108 +1 x42 >= 0 ;
+1 x108 -1 x27 -1 x42 >= -1 ;
-1 x98 +1 x26 >= 0 ;
-1 x98 +1 x43 >= 0 ;
+1 x98 -1 x26 -1 x43 >= -1 ;
-1 x88 +1 x25 >= 0 ;
-1 x88 +1 x44 >= 0 ;
+1 x88 -1 x25 -1 x44 >= -1 ;
-1 x531 +1 x22 >= 0 ;
-1 x531 +1 x3 >= 0 ;
+1 x531 -1 x22 -1 x3 >= -1 ;
-1 x521 +1 x21 >= 0 ;
-1 x521 +1 x4 >= 0 ;
+1 x521 -1 x21 -1 x4 >= -1 ;
-1 x511 +1 x20 >= 0 ;
-1 x511 +1 x5 >= 0 ;
+1 x511 -1 x20 -1 x5 >= -1 ;
-1 x501 +1 x19 >= 0 ;
-1 x501 +1 x6 >= 0 ;
+1 x501 -1 x19 -1 x6 >= -1 ;
-1 x491 +1 x18 >= 0 ;
-1 x491 +1 x7 >= 0 ;
+1 x491 -1 x18 -1 x7 >= -1 ;
-1 x481 +1 x17 >= 0 ;
-1 x481 +1 x8 >= 0 ;
+1 x481 -1 x17 -1 x8 >= -1 ;
-1 x471 +1 x16 >= 0 ;
-1 x471 +1 x9 >= 0 ;
+1 x471 -1 x16 -1 x9 >= -1 ;
-1 x461 +1 x15 >= 0 ;
-1 x461 +1 x10 >= 0 ;
+1 x461 -1 x15 -1 x10 >= -1 ;
-1 x451 +1 x14 >= 0 ;
-1 x451 +1 x11 >= 0 ;
+1 x451 -1 x14 -1 x11 >= -1 ;
-1 x169 +1 x33 >= 0 ;
-1 x169 +1 x37 >= 0 ;
+1 x169 -1 x33 -1 x37 >= -1 ;
-1 x159 +1 x32 >= 0 ;
-1 x159 +1 x38 >= 0 ;
+1 x159 -1 x32 -1 x38 >= -1 ;
-1 x149 +1 x31 >= 0 ;
-1 x149 +1 x39 >= 0 ;
+1 x149 -1 x31 -1 x39 >= -1 ;
-1 x139 +1 x30 >= 0 ;
-1 x139 +1 x40 >= 0 ;
+1 x139 -1 x30 -1 x40 >= -1 ;
-1 x129 +1 x29 >= 0 ;
-1 x129 +1 x41 >= 0 ;
+1 x129 -1 x29 -1 x41 >= -1 ;
-1 x119 +1 x28 >= 0 ;
-1 x119 +1 x42 >= 0 ;
+1 x119 -1 x28 -1 x42 >= -1 ;
-1 x109 +1 x27 >= 0 ;
-1 x109 +1 x43 >= 0 ;
+1 x109 -1 x27 -1 x43 >= -1 ;
-1 x99 +1 x26 >= 0 ;
-1 x99 +1 x44 >= 0 ;
+1 x99 -1 x26 -1 x44 >= -1 ;
-1 x532 +1 x22 >= 0 ;
-1 x532 +1 x4 >= 0 ;
+1 x532 -1 x22 -1 x4 >= -1 ;
-1 x522 +1 x21 >= 0 ;
-1 x522 +1 x5 >= 0 ;
+1 x522 -1 x21 -1 x5 >= -1 ;
-1 x512 +1 x20 >= 0 ;
-1 x512 +1 x6 >= 0 ;
+1 x512 -1 x20 -1 x6 >= -1 ;
-1 x502 +1 x19 >= 0 ;
-1 x502 +1 x7 >= 0 ;
+1 x502 -1 x19 -1 x7 >= -1 ;
-1 x492 +1 x18 >= 0 ;
-1 x492 +1 x8 >= 0 ;
+1 x492 -1 x18 -1 x8 >= -1 ;
-1 x482 +1 x17 >= 0 ;
-1 x482 +1 x9 >= 0 ;
+1 x482 -1 x17 -1 x9 >= -1 ;
-1 x472 +1 x16 >= 0 ;
-1 x472 +1 x10 >= 0 ;
+1 x472 -1 x16 -1 x10 >= -1 ;
-1 x462 +1 x15 >= 0 ;
-1 x462 +1 x11 >= 0 ;
+1 x462 -1 x15 -1 x11 >= -1 ;
-1 x170 +1 x33 >= 0 ;
-1 x170 +1 x38 >= 0 ;
+1 x170 -1 x33 -1 x38 >= -1 ;
-1 x160 +1 x32 >= 0 ;
-1 x160 +1 x39 >= 0 ;
+1 x160 -1 x32 -1 x39 >= -1 ;
-1 x150 +1 x31 >= 0 ;
-1 x150 +1 x40 >= 0 ;
+1 x150 -1 x31 -1 x40 >= -1 ;
-1 x140 +1 x30 >= 0 ;
-1 x140 +1 x41 >= 0 ;
+1 x140 -1 x30 -1 x41 >= -1 ;
-1 x130 +1 x29 >= 0 ;
-1 x130 +1 x42 >= 0 ;
+1 x130 -1 x29 -1 x42 >= -1 ;
-1 x120 +1 x28 >= 0 ;
-1 x120 +1 x43 >= 0 ;
+1 x120 -1 x28 -1 x43 >= -1 ;
-1 x110 +1 x27 >= 0 ;
-1 x110 +1 x44 >= 0 ;
+1 x110 -1 x27 -1 x44 >= -1 ;
-1 x533 +1 x22 >= 0 ;
-1 x533 +1 x5 >= 0 ;
+1 x533 -1 x22 -1 x5 >= -1 ;
-1 x523 +1 x21 >= 0 ;
-1 x523 +1 x6 >= 0 ;
+1 x523 -1 x21 -1 x6 >= -1 ;
-1 x513 +1 x20 >= 0 ;
-1 x513 +1 x7 >= 0 ;
+1 x513 -1 x20 -1 x7 >= -1 ;
-1 x503 +1 x19 >= 0 ;
-1 x503 +1 x8 >= 0 ;
+1 x503 -1 x19 -1 x8 >= -1 ;
-1 x493 +1 x18 >= 0 ;
-1 x493 +1 x9 >= 0 ;
+1 x493 -1 x18 -1 x9 >= -1 ;
-1 x483 +1 x17 >= 0 ;
-1 x483 +1 x10 >= 0 ;
+1 x483 -1 x17 -1 x10 >= -1 ;
-1 x473 +1 x16 >= 0 ;
-1 x473 +1 x11 >= 0 ;
+1 x473 -1 x16 -1 x11 >= -1 ;
-1 x171 +1 x33 >= 0 ;
-1 x171 +1 x39 >= 0 ;
+1 x171 -1 x33 -1 x39 >= -1 ;
-1 x161 +1 x32 >= 0 ;
-1 x161 +1 x40 >= 0 ;
+1 x161 -1 x32 -1 x40 >= -1 ;
-1 x151 +1 x31 >= 0 ;
-1 x151 +1 x41 >= 0 ;
+1 x151 -1 x31 -1 x41 >= -1 ;
-1 x141 +1 x30 >= 0 ;
-1 x141 +1 x42 >= 0 ;
+1 x141 -1 x30 -1 x42 >= -1 ;
-1 x131 +1 x29 >= 0 ;
-1 x131 +1 x43 >= 0 ;
+1 x131 -1 x29 -1 x43 >= -1 ;
-1 x121 +1 x28 >= 0 ;
-1 x121 +1 x44 >= 0 ;
+1 x121 -1 x28 -1 x44 >= -1 ;
-1 x534 +1 x22 >= 0 ;
-1 x534 +1 x6 >= 0 ;
+1 x534 -1 x22 -1 x6 >= -1 ;
-1 x524 +1 x21 >= 0 ;
-1 x524 +1 x7 >= 0 ;
+1 x524 -1 x21 -1 x7 >= -1 ;
-1 x514 +1 x20 >= 0 ;
-1 x514 +1 x8 >= 0 ;
+1 x514 -1 x20 -1 x8 >= -1 ;
-1 x504 +1 x19 >= 0 ;
-1 x504 +1 x9 >= 0 ;
+1 x504 -1 x19 -1 x9 >= -1 ;
-1 x494 +1 x18 >= 0 ;
-1 x494 +1 x10 >= 0 ;
+1 x494 -1 x18 -1 x10 >= -1 ;
-1 x484 +1 x17 >= 0 ;
-1 x484 +1 x11 >= 0 ;
+1 x484 -1 x17 -1 x11 >= -1 ;
-1 x172 +1 x33 >= 0 ;
-1 x172 +1 x40 >= 0 ;
+1 x172 -1 x33 -1 x40 >= -1 ;
-1 x162 +1 x32 >= 0 ;
-1 x162 +1 x41 >= 0 ;
+1 x162 -1 x32 -1 x41 >= -1 ;
-1 x152 +1 x31 >= 0 ;
-1 x152 +1 x42 >= 0 ;
+1 x152 -1 x31 -1 x42 >= -1 ;
-1 x142 +1 x30 >= 0 ;
-1 x142 +1 x43 >= 0 ;
+1 x142 -1 x30 -1 x43 >= -1 ;
-1 x132 +1 x29 >= 0 ;
-1 x132 +1 x44 >= 0 ;
+1 x132 -1 x29 -1 x44 >= -1 ;
-1 x535 +1 x22 >= 0 ;
-1 x535 +1 x7 >= 0 ;
+1 x535 -1 x22 -1 x7 >= -1 ;
-1 x525 +1 x21 >= 0 ;
-1 x525 +1 x8 >= 0 ;
+1 x525 -1 x21 -1 x8 >= -1 ;
-1 x515 +1 x20 >= 0 ;
-1 x515 +1 x9 >= 0 ;
+1 x515 -1 x20 -1 x9 >= -1 ;
-1 x505 +1 x19 >= 0 ;
-1 x505 +1 x10 >= 0 ;
+1 x505 -1 x19 -1 x10 >= -1 ;
-1 x495 +1 x18 >= 0 ;
-1 x495 +1 x11 >= 0 ;
+1 x495 -1 x18 -1 x11 >= -1 ;
-1 x173 +1 x33 >= 0 ;
-1 x173 +1 x41 >= 0 ;
+1 x173 -1 x33 -1 x41 >= -1 ;
-1 x163 +1 x32 >= 0 ;
-1 x163 +1 x42 >= 0 ;
+1 x163 -1 x32 -1 x42 >= -1 ;
-1 x153 +1 x31 >= 0 ;
-1 x153 +1 x43 >= 0 ;
+1 x153 -1 x31 -1 x43 >= -1 ;
-1 x143 +1 x30 >= 0 ;
-1 x143 +1 x44 >= 0 ;
+1 x143 -1 x30 -1 x44 >= -1 ;
-1 x536 +1 x22 >= 0 ;
-1 x536 +1 x8 >= 0 ;
+1 x536 -1 x22 -1 x8 >= -1 ;
-1 x526 +1 x21 >= 0 ;
-1 x526 +1 x9 >= 0 ;
+1 x526 -1 x21 -1 x9 >= -1 ;
-1 x516 +1 x20 >= 0 ;
-1 x516 +1 x10 >= 0 ;
+1 x516 -1 x20 -1 x10 >= -1 ;
-1 x506 +1 x19 >= 0 ;
-1 x506 +1 x11 >= 0 ;
+1 x506 -1 x19 -1 x11 >= -1 ;
-1 x174 +1 x33 >= 0 ;
-1 x174 +1 x42 >= 0 ;
+1 x174 -1 x33 -1 x42 >= -1 ;
-1 x164 +1 x32 >= 0 ;
-1 x164 +1 x43 >= 0 ;
+1 x164 -1 x32 -1 x43 >= -1 ;
-1 x154 +1 x31 >= 0 ;
-1 x154 +1 x44 >= 0 ;
+1 x154 -1 x31 -1 x44 >= -1 ;
-1 x537 +1 x22 >= 0 ;
-1 x537 +1 x9 >= 0 ;
+1 x537 -1 x22 -1 x9 >= -1 ;
-1 x527 +1 x21 >= 0 ;
-1 x527 +1 x10 >= 0 ;
+1 x527 -1 x21 -1 x10 >= -1 ;
-1 x517 +1 x20 >= 0 ;
-1 x517 +1 x11 >= 0 ;
+1 x517 -1 x20 -1 x11 >= -1 ;
-1 x175 +1 x33 >= 0 ;
-1 x175 +1 x43 >= 0 ;
+1 x175 -1 x33 -1 x43 >= -1 ;
-1 x165 +1 x32 >= 0 ;
-1 x165 +1 x44 >= 0 ;
+1 x165 -1 x32 -1 x44 >= -1 ;
-1 x538 +1 x22 >= 0 ;
-1 x538 +1 x10 >= 0 ;
+1 x538 -1 x22 -1 x10 >= -1 ;
-1 x528 +1 x21 >= 0 ;
-1 x528 +1 x11 >= 0 ;
+1 x528 -1 x21 -1 x11 >= -1 ;
-1 x176 +1 x33 >= 0 ;
-1 x176 +1 x44 >= 0 ;
+1 x176 -1 x33 -1 x44 >= -1 ;
-1 x539 +1 x22 >= 0 ;
-1 x539 +1 x11 >= 0 ;
+1 x539 -1 x22 -1 x11 >= -1 ;
